10 45
1 2 17
1 3 22
1 4 6
1 5 39
1 6 8
1 7 43
1 8 33
1 9 12
1 10 14
2 3 48
2 4 31
2 5 23
2 6 37
2 7 2
2 8 11
2 9 5
2 10 19
3 4 50
3 5 7
3 6 18
3 7 15
3 8 46
3 9 27
3 10 26
4 5 38
4 6 32
4 7 9
4 8 25
4 9 30
4 10 35
5 6 44
5 7 36
5 8 49
5 9 3
5 10 20
6 7 24
6 8 45
6 9 42
6 10 34
7 8 28
7 9 29
7 10 41
8 9 16
8 10 13
9 10 1